; benchmark generated from python API
(set-info :status unknown)
(declare-fun DISJ_W_S1_R_S2 () Bool)
(declare-fun W_S1_V4 () Bool)
(declare-fun W_S1_V5 () Bool)
(declare-fun R_S1_V4 () Bool)
(declare-fun R_S1_V5 () Bool)
(declare-fun W_S2_V5 () Bool)
(declare-fun DISJ_W_S1_R_S1 () Bool)
(declare-fun DISJ_W_S2_R_S1 () Bool)
(declare-fun R_S2_V3 () Bool)
(declare-fun R_S1_V1 () Bool)
(declare-fun R_S2_V4 () Bool)
(declare-fun DISJ_W_S1_W_S2 () Bool)
(declare-fun DISJ_W_S2_R_S2 () Bool)
(declare-fun R_E1_V4 () Bool)
(declare-fun R_E1_V5 () Bool)
(declare-fun W_S2_V2 () Bool)
(declare-fun W_S2_V3 () Bool)
(declare-fun W_S2_V1 () Bool)
(declare-fun R_S2_V5 () Bool)
(declare-fun R_S2_V2 () Bool)
(declare-fun R_S2_V1 () Bool)
(declare-fun R_S1_V2 () Bool)
(declare-fun R_S1_V3 () Bool)
(declare-fun R_E1_V2 () Bool)
(declare-fun DISJ_W_S2_R_E1 () Bool)
(declare-fun R_E1_V3 () Bool)
(declare-fun W_S2_V4 () Bool)
(declare-fun W_S1_V3 () Bool)
(declare-fun W_S1_V2 () Bool)
(declare-fun W_S1_V1 () Bool)
(declare-fun R_E1_V1 () Bool)
(declare-fun DISJ_W_S1_R_E1 () Bool)
(assert
 (let (($x3668 (not W_S1_V4)))
 (let (($x583 (not W_S1_V5)))
 (let (($x5363 (not R_S1_V4)))
 (let (($x1344 (not R_S1_V5)))
 (let (($x881 (not (and $x1344 $x5363 $x583 $x3668 DISJ_W_S1_R_S2))))
 (let (($x3219 (not (and $x5363 $x583 $x3668 (not W_S2_V5) DISJ_W_S1_R_S2))))
 (let (($x3609 (not W_S2_V5)))
 (let (($x2392 (not R_S2_V3)))
 (let (($x572 (not R_S1_V1)))
 (let (($x1968 (not (and $x572 $x2392 $x3668 $x3609 DISJ_W_S2_R_S1 DISJ_W_S1_R_S1))))
 (let (($x1036 (not R_S2_V4)))
 (let (($x153 (and $x2392 $x1036 $x3609 DISJ_W_S2_R_S1)))
 (let (($x1348 (not $x153)))
 (let (($x1685 (and DISJ_W_S1_R_S2 DISJ_W_S2_R_S1)))
 (let (($x2299 (not $x1685)))
 (let (($x3645 (not (and $x572 DISJ_W_S2_R_S1 DISJ_W_S1_W_S2 DISJ_W_S1_R_S1))))
 (let (($x5106 (and DISJ_W_S2_R_S1 DISJ_W_S2_R_S2)))
 (let (($x3461 (not $x5106)))
 (let (($x3657 (not (and W_S1_V4 R_E1_V4))))
 (let (($x2028 (not (and W_S1_V5 R_E1_V5))))
 (let (($x4827 (forall ((V3_0 Int) )(forall ((V2_0 Int) )(forall ((V5_0 Int) )(forall ((V4_0 Int) )(forall ((MW_S1_V1 Bool) )(forall ((MW_S1_V3 Bool) )(forall ((MW_S1_V2 Bool) )(forall ((MW_S1_V5 Bool) )(forall ((MW_S1_V4 Bool) )(forall ((MW_S2_V1 Bool) )(forall ((MW_S2_V3 Bool) )(forall ((MW_S2_V2 Bool) )(forall ((MW_S2_V5 Bool) )(forall ((MW_S2_V4 Bool) )(forall ((S1_V1_!6074 Int) )(forall ((S1_V1_!6084 Int) )(forall ((S1_V1_!6095 Int) )(forall ((S1_V1_!6100 Int) )(forall ((S2_V5_!6082 Int) )(forall ((S2_V5_!6092 Int) )(forall ((S2_V5_!6109 Int) )(forall ((S2_V5_!6114 Int) )(forall ((S1_V3_!6075 Int) )(forall ((S1_V3_!6085 Int) )(forall ((S1_V3_!6096 Int) )(forall ((S1_V3_!6101 Int) )(forall ((S1_V2_!6076 Int) )(forall ((S1_V2_!6086 Int) )(forall ((S1_V2_!6097 Int) )(forall ((S1_V2_!6102 Int) )(forall ((E1_!6073 Int) )(forall ((E1_!6094 Int) )(forall ((E1_!6105 Int) )(forall ((S2_V4_!6083 Int) )(forall ((S2_V4_!6093 Int) )(forall ((S2_V4_!6110 Int) )(forall ((S2_V4_!6115 Int) )(forall ((S1_V5_!6077 Int) )(forall ((S1_V5_!6087 Int) )(forall ((S1_V5_!6098 Int) )(forall ((S1_V5_!6103 Int) )(forall ((S2_V1_!6079 Int) )(forall ((S2_V1_!6089 Int) )(forall ((S2_V1_!6106 Int) )(forall ((S2_V1_!6111 Int) )(forall ((S1_V4_!6078 Int) )(forall ((S1_V4_!6088 Int) )(forall ((S1_V4_!6099 Int) )(forall ((S1_V4_!6104 Int) )(forall ((S2_V2_!6081 Int) )(forall ((S2_V2_!6091 Int) )(forall ((S2_V2_!6108 Int) )(forall ((S2_V2_!6113 Int) )(forall ((S2_V3_!6080 Int) )(forall ((S2_V3_!6090 Int) )(forall ((S2_V3_!6107 Int) )(forall ((S2_V3_!6112 Int) )(let (($x2434 (= (ite MW_S2_V4 S2_V4_!6093 (ite MW_S1_V4 S1_V4_!6088 (ite MW_S2_V4 S2_V4_!6083 (ite MW_S1_V4 S1_V4_!6078 V4_0)))) (ite MW_S2_V4 S2_V4_!6115 (ite MW_S1_V4 S1_V4_!6104 V4_0)))))
 (let (($x2450 (= (ite MW_S2_V5 S2_V5_!6092 (ite MW_S1_V5 S1_V5_!6087 (ite MW_S2_V5 S2_V5_!6082 (ite MW_S1_V5 S1_V5_!6077 V5_0)))) (ite MW_S2_V5 S2_V5_!6114 (ite MW_S1_V5 S1_V5_!6103 V5_0)))))
 (let ((?x4663 (ite MW_S1_V2 S1_V2_!6102 V2_0)))
 (let ((?x1693 (ite MW_S2_V2 S2_V2_!6113 ?x4663)))
 (let ((?x1124 (ite MW_S1_V2 S1_V2_!6076 V2_0)))
 (let ((?x697 (ite MW_S2_V2 S2_V2_!6081 ?x1124)))
 (let ((?x1767 (ite MW_S1_V2 S1_V2_!6086 ?x697)))
 (let ((?x2679 (ite MW_S2_V2 S2_V2_!6091 ?x1767)))
 (let (($x3370 (= (ite MW_S2_V3 S2_V3_!6090 (ite MW_S1_V3 S1_V3_!6085 (ite MW_S2_V3 S2_V3_!6080 (ite MW_S1_V3 S1_V3_!6075 V3_0)))) (ite MW_S2_V3 S2_V3_!6112 (ite MW_S1_V3 S1_V3_!6101 V3_0)))))
 (let ((?x3662 (ite MW_S2_V1 S2_V1_!6106 E1_!6105)))
 (let ((?x1320 (+ 1 ?x3662)))
 (let ((?x3592 (ite MW_S2_V1 S2_V1_!6111 ?x1320)))
 (let ((?x1356 (ite MW_S1_V1 S1_V1_!6074 E1_!6073)))
 (let ((?x5081 (ite MW_S2_V1 S2_V1_!6079 ?x1356)))
 (let ((?x2402 (+ 1 ?x5081)))
 (let ((?x4555 (ite MW_S1_V1 S1_V1_!6084 ?x2402)))
 (let ((?x1657 (ite MW_S2_V1 S2_V1_!6089 ?x4555)))
 (let (($x3850 (>= (ite MW_S1_V1 S1_V1_!6100 (+ 1 (ite MW_S1_V1 S1_V1_!6095 E1_!6094))) (+ (- 1) ?x4663))))
 (let (($x5995 (and (not (<= V2_0 E1_!6073)) (not (<= ?x697 ?x2402)) (>= ?x1657 (+ (- 1) ?x2679)) (not (<= V2_0 E1_!6094)) (not (<= (ite MW_S1_V2 S1_V2_!6097 V2_0) (+ 1 (ite MW_S1_V1 S1_V1_!6095 E1_!6094)))) $x3850 (not (<= ?x4663 E1_!6105)) (not (<= (ite MW_S2_V2 S2_V2_!6108 ?x4663) ?x1320)) (>= ?x3592 (+ (- 1) ?x1693)))))
 (let (($x600 (= S2_V3_!6112 S2_V3_!6090)))
 (let ((?x4657 (ite MW_S1_V4 S1_V4_!6078 V4_0)))
 (let ((?x1973 (ite MW_S2_V4 S2_V4_!6083 ?x4657)))
 (let ((?x5342 (ite MW_S1_V4 S1_V4_!6088 ?x1973)))
 (let ((?x683 (ite MW_S1_V4 S1_V4_!6104 V4_0)))
 (let ((?x3466 (ite MW_S2_V4 S2_V4_!6110 ?x683)))
 (let (($x1036 (not R_S2_V4)))
 (let ((?x2414 (ite MW_S1_V5 S1_V5_!6077 V5_0)))
 (let ((?x5370 (ite MW_S2_V5 S2_V5_!6082 ?x2414)))
 (let ((?x813 (ite MW_S1_V5 S1_V5_!6087 ?x5370)))
 (let ((?x4639 (ite MW_S1_V5 S1_V5_!6103 V5_0)))
 (let ((?x5964 (ite MW_S2_V5 S2_V5_!6109 ?x4639)))
 (let (($x5434 (not R_S2_V5)))
 (let ((?x3696 (ite MW_S1_V3 S1_V3_!6075 V3_0)))
 (let ((?x1916 (ite MW_S2_V3 S2_V3_!6080 ?x3696)))
 (let ((?x5925 (ite MW_S1_V3 S1_V3_!6085 ?x1916)))
 (let ((?x1402 (ite MW_S1_V3 S1_V3_!6101 V3_0)))
 (let ((?x3893 (ite MW_S2_V3 S2_V3_!6107 ?x1402)))
 (let (($x2392 (not R_S2_V3)))
 (let (($x2187 (and (or (not R_S2_V1) (= ?x3662 (+ (- 1) ?x4555))) (or $x2392 (= ?x3893 ?x5925)) (or (not R_S2_V2) (= (ite MW_S2_V2 S2_V2_!6108 ?x4663) ?x1767)) (or $x5434 (= ?x5964 ?x813)) (or $x1036 (= ?x3466 ?x5342)))))
 (let (($x274 (not $x2187)))
 (let (($x1204 (= S2_V3_!6112 S2_V3_!6080)))
 (let (($x5006 (and (or (not R_S2_V1) (= ?x3662 (+ (- 1) ?x1356))) (or $x2392 (= ?x3893 ?x3696)) (or (not R_S2_V2) (= (ite MW_S2_V2 S2_V2_!6108 ?x4663) ?x1124)) (or $x5434 (= ?x5964 ?x2414)) (or $x1036 (= ?x3466 ?x4657)))))
 (let (($x3107 (not $x5006)))
 (let (($x1500 (= S2_V3_!6107 S2_V3_!6112)))
 (let (($x384 (and (or (not R_S2_V1) (= E1_!6105 ?x1320)) (or $x2392 (= ?x1402 ?x3893)) (or (not R_S2_V2) (= ?x4663 (ite MW_S2_V2 S2_V2_!6108 ?x4663))) (or $x5434 (= ?x4639 ?x5964)) (or $x1036 (= ?x683 ?x3466)))))
 (let (($x1139 (= S2_V3_!6107 S2_V3_!6090)))
 (let (($x245 (and (or (not R_S2_V1) (= E1_!6105 ?x4555)) (or $x2392 (= ?x1402 ?x5925)) (or (not R_S2_V2) (= ?x4663 ?x1767)) (or $x5434 (= ?x4639 ?x813)) (or $x1036 (= ?x683 ?x5342)))))
 (let (($x1711 (not $x245)))
 (let (($x92 (= S2_V3_!6107 S2_V3_!6080)))
 (let (($x4175 (and (or (not R_S2_V1) (= E1_!6105 ?x1356)) (or $x2392 (= ?x1402 ?x3696)) (or (not R_S2_V2) (= ?x4663 ?x1124)) (or $x5434 (= ?x4639 ?x2414)) (or $x1036 (= ?x683 ?x4657)))))
 (let (($x2441 (= S2_V3_!6090 S2_V3_!6080)))
 (let (($x159 (and (or (not R_S2_V1) (= ?x4555 ?x1356)) (or $x2392 (= ?x5925 ?x3696)) (or (not R_S2_V2) (= ?x1767 ?x1124)) (or $x5434 (= ?x813 ?x2414)) (or $x1036 (= ?x5342 ?x4657)))))
 (let (($x503 (not $x159)))
 (let (($x3444 (= S2_V2_!6113 S2_V2_!6108)))
 (let (($x5961 (and (or (not R_S2_V1) (= ?x3662 (+ (- 1) E1_!6105))) (or $x2392 (= ?x3893 ?x1402)) (or (not R_S2_V2) (= (ite MW_S2_V2 S2_V2_!6108 ?x4663) ?x4663)) (or $x5434 (= ?x5964 ?x4639)) (or $x1036 (= ?x3466 ?x683)))))
 (let (($x5539 (not $x5961)))
 (let (($x5750 (= S2_V2_!6091 S2_V2_!6108)))
 (let (($x1963 (and (or (not R_S2_V1) (= ?x4555 E1_!6105)) (or $x2392 (= ?x5925 ?x1402)) (or (not R_S2_V2) (= ?x1767 ?x4663)) (or $x5434 (= ?x813 ?x4639)) (or $x1036 (= ?x5342 ?x683)))))
 (let (($x420 (not $x1963)))
 (let (($x3987 (= S2_V2_!6081 S2_V2_!6113)))
 (let (($x113 (and (or (not R_S2_V1) (= ?x1356 ?x1320)) (or $x2392 (= ?x3696 ?x3893)) (or (not R_S2_V2) (= ?x1124 (ite MW_S2_V2 S2_V2_!6108 ?x4663))) (or $x5434 (= ?x2414 ?x5964)) (or $x1036 (= ?x4657 ?x3466)))))
 (let (($x4015 (not $x113)))
 (let (($x60 (= S2_V2_!6081 S2_V2_!6108)))
 (let (($x2281 (and (or (not R_S2_V1) (= ?x1356 E1_!6105)) (or $x2392 (= ?x3696 ?x1402)) (or (not R_S2_V2) (= ?x1124 ?x4663)) (or $x5434 (= ?x2414 ?x4639)) (or $x1036 (= ?x4657 ?x683)))))
 (let (($x472 (not $x2281)))
 (let (($x6061 (= S2_V2_!6081 S2_V2_!6091)))
 (let (($x3687 (and (or (not R_S2_V1) (= ?x1356 ?x4555)) (or $x2392 (= ?x3696 ?x5925)) (or (not R_S2_V2) (= ?x1124 ?x1767)) (or $x5434 (= ?x2414 ?x813)) (or $x1036 (= ?x4657 ?x5342)))))
 (let (($x1871 (not $x3687)))
 (let (($x4778 (= S1_V4_!6104 S1_V4_!6088)))
 (let (($x2565 (and (or (not R_S1_V1) (= (ite MW_S1_V1 S1_V1_!6095 E1_!6094) ?x5081)) (or (not R_S1_V3) (= (ite MW_S1_V3 S1_V3_!6096 V3_0) ?x1916)) (or (not R_S1_V2) (= (ite MW_S1_V2 S1_V2_!6097 V2_0) ?x697)) (or (not R_S1_V5) (= (ite MW_S1_V5 S1_V5_!6098 V5_0) ?x5370)) (or (not R_S1_V4) (= (ite MW_S1_V4 S1_V4_!6099 V4_0) ?x1973)))))
 (let (($x3080 (not $x2565)))
 (let (($x5363 (not R_S1_V4)))
 (let (($x2849 (or $x5363 (= (ite MW_S1_V4 S1_V4_!6099 V4_0) V4_0))))
 (let (($x1344 (not R_S1_V5)))
 (let (($x2409 (or $x1344 (= (ite MW_S1_V5 S1_V5_!6098 V5_0) V5_0))))
 (let (($x3728 (not R_S1_V2)))
 (let (($x6014 (or $x3728 (= (ite MW_S1_V2 S1_V2_!6097 V2_0) V2_0))))
 (let (($x1051 (not R_S1_V3)))
 (let (($x1000 (or $x1051 (= (ite MW_S1_V3 S1_V3_!6096 V3_0) V3_0))))
 (let (($x3575 (and (or (not R_S1_V1) (= (ite MW_S1_V1 S1_V1_!6095 E1_!6094) (+ (- 1) E1_!6073))) $x1000 $x6014 $x2409 $x2849)))
 (let (($x5825 (not $x3575)))
 (let (($x2308 (or $x5363 (= V4_0 (ite MW_S1_V4 S1_V4_!6099 V4_0)))))
 (let (($x554 (or $x1344 (= V5_0 (ite MW_S1_V5 S1_V5_!6098 V5_0)))))
 (let (($x3151 (or $x3728 (= V2_0 (ite MW_S1_V2 S1_V2_!6097 V2_0)))))
 (let (($x3149 (or $x1051 (= V3_0 (ite MW_S1_V3 S1_V3_!6096 V3_0)))))
 (let (($x6006 (and (or (not R_S1_V1) (= E1_!6094 (+ 1 (ite MW_S1_V1 S1_V1_!6095 E1_!6094)))) $x3149 $x3151 $x554 $x2308)))
 (let (($x4645 (not $x6006)))
 (let (($x2249 (= S1_V4_!6099 S1_V4_!6088)))
 (let (($x750 (or $x5363 (= V4_0 ?x1973))))
 (let (($x5928 (or $x1344 (= V5_0 ?x5370))))
 (let (($x5839 (or $x3728 (= V2_0 ?x697))))
 (let (($x4805 (or $x1051 (= V3_0 ?x1916))))
 (let (($x687 (not (and (or (not R_S1_V1) (= E1_!6094 ?x2402)) $x4805 $x5839 $x5928 $x750))))
 (let (($x5392 (or $x5363 (= ?x1973 V4_0))))
 (let (($x3035 (or $x1344 (= ?x5370 V5_0))))
 (let (($x2580 (or $x3728 (= ?x697 V2_0))))
 (let (($x2274 (or $x1051 (= ?x1916 V3_0))))
 (let (($x804 (and (or (not R_S1_V1) (= ?x5081 (+ (- 1) E1_!6073))) $x2274 $x2580 $x3035 $x5392)))
 (let (($x3258 (not $x804)))
 (let (($x4924 (= S2_V1_!6089 S2_V1_!6111)))
 (let (($x5042 (and (or (not R_S2_V1) (= ?x4555 ?x1320)) (or $x2392 (= ?x5925 ?x3893)) (or (not R_S2_V2) (= ?x1767 (ite MW_S2_V2 S2_V2_!6108 ?x4663))) (or $x5434 (= ?x813 ?x5964)) (or $x1036 (= ?x5342 ?x3466)))))
 (let (($x4236 (not $x5042)))
 (let (($x5793 (= S1_V5_!6103 S1_V5_!6098)))
 (let (($x2511 (and (or (not R_S1_V1) (= (ite MW_S1_V1 S1_V1_!6095 E1_!6094) (+ (- 1) E1_!6094))) $x1000 $x6014 $x2409 $x2849)))
 (let (($x4278 (not $x2511)))
 (let (($x2886 (or (not (and (or (not R_S1_V1) (= E1_!6073 ?x2402)) $x4805 $x5839 $x5928 $x750)) (= S1_V5_!6077 S1_V5_!6087))))
 (let (($x2704 (and (or (not R_E1_V2) (= ?x4663 V2_0)) (or (not R_E1_V5) (= ?x4639 V5_0)) (or (not R_E1_V4) (= ?x683 V4_0)))))
 (let (($x3447 (= E1_!6073 E1_!6105)))
 (let (($x952 (and (or (not R_E1_V2) (= V2_0 ?x4663)) (or (not R_E1_V5) (= V5_0 ?x4639)) (or (not R_E1_V4) (= V4_0 ?x683)))))
 (let (($x5653 (= E1_!6073 E1_!6094)))
 (let (($x3251 (and (or (not R_S1_V1) (= ?x5081 (ite MW_S1_V1 S1_V1_!6095 E1_!6094))) (or $x1051 (= ?x1916 (ite MW_S1_V3 S1_V3_!6096 V3_0))) (or $x3728 (= ?x697 (ite MW_S1_V2 S1_V2_!6097 V2_0))) (or $x1344 (= ?x5370 (ite MW_S1_V5 S1_V5_!6098 V5_0))) (or $x5363 (= ?x1973 (ite MW_S1_V4 S1_V4_!6099 V4_0))))))
 (let (($x5759 (not $x3251)))
 (let (($x1393 (and (or (not R_S1_V1) (= ?x5081 (+ (- 1) E1_!6094))) $x2274 $x2580 $x3035 $x5392)))
 (let (($x922 (not $x1393)))
 (let (($x2737 (and (or (not R_S1_V1) (= E1_!6073 (+ 1 (ite MW_S1_V1 S1_V1_!6095 E1_!6094)))) $x3149 $x3151 $x554 $x2308)))
 (let (($x2747 (not $x2737)))
 (let (($x2411 (and (or $x2747 (= S1_V1_!6074 S1_V1_!6100)) (or $x3258 (= S1_V1_!6084 S1_V1_!6074)) (or $x922 (= S1_V1_!6084 S1_V1_!6095)) (or $x5759 (= S1_V1_!6084 S1_V1_!6100)) (or (not (or (not R_S1_V1) (= E1_!6094 E1_!6073))) (= S1_V1_!6095 S1_V1_!6074)) (or $x4645 (= S1_V1_!6095 S1_V1_!6100)) (or $x472 (= S2_V5_!6082 S2_V5_!6109)) (or $x4015 (= S2_V5_!6082 S2_V5_!6114)) (or $x503 (= S2_V5_!6092 S2_V5_!6082)) (or $x420 (= S2_V5_!6092 S2_V5_!6109)) (or $x4236 (= S2_V5_!6092 S2_V5_!6114)) (or $x5539 (= S2_V5_!6114 S2_V5_!6109)) (or (not (or (not R_S1_V1) $x5653)) (= S1_V3_!6075 S1_V3_!6096)) (or $x3258 (= S1_V3_!6085 S1_V3_!6075)) (or $x922 (= S1_V3_!6085 S1_V3_!6096)) (or $x5759 (= S1_V3_!6085 S1_V3_!6101)) (or $x5825 (= S1_V3_!6101 S1_V3_!6075)) (or $x4278 (= S1_V3_!6101 S1_V3_!6096)) (or $x2747 (= S1_V2_!6076 S1_V2_!6102)) (or $x3258 (= S1_V2_!6086 S1_V2_!6076)) (or $x922 (= S1_V2_!6086 S1_V2_!6097)) (or $x5759 (= S1_V2_!6086 S1_V2_!6102)) (or (not (or (not R_S1_V1) (= E1_!6094 E1_!6073))) (= S1_V2_!6097 S1_V2_!6076)) (or $x4645 (= S1_V2_!6097 S1_V2_!6102)) $x5653 (or (not $x952) $x3447) (or (not $x2704) (= E1_!6105 E1_!6094)) (or $x1871 (= S2_V4_!6083 S2_V4_!6093)) (or $x472 (= S2_V4_!6083 S2_V4_!6110)) (or $x1711 (= S2_V4_!6110 S2_V4_!6093)) (or $x3107 (= S2_V4_!6115 S2_V4_!6083)) (or $x274 (= S2_V4_!6115 S2_V4_!6093)) (or $x5539 (= S2_V4_!6115 S2_V4_!6110)) $x2886 (or (not (or (not R_S1_V1) $x5653)) (= S1_V5_!6077 S1_V5_!6098)) (or $x687 (= S1_V5_!6098 S1_V5_!6087)) (or $x5825 (= S1_V5_!6103 S1_V5_!6077)) (or $x3080 (= S1_V5_!6103 S1_V5_!6087)) (or $x4278 $x5793) (or $x1871 (= S2_V1_!6079 S2_V1_!6089)) (or $x472 (= S2_V1_!6079 S2_V1_!6106)) (or $x4015 (= S2_V1_!6079 S2_V1_!6111)) (or $x420 (= S2_V1_!6089 S2_V1_!6106)) (or $x4236 $x4924) (or $x5539 (= S2_V1_!6111 S2_V1_!6106)) (or $x3258 (= S1_V4_!6088 S1_V4_!6078)) (or (not (or (not R_S1_V1) (= E1_!6094 E1_!6073))) (= S1_V4_!6099 S1_V4_!6078)) (or $x687 $x2249) (or $x4645 (= S1_V4_!6099 S1_V4_!6104)) (or $x5825 (= S1_V4_!6104 S1_V4_!6078)) (or $x3080 $x4778) (or $x1871 $x6061) (or $x472 $x60) (or $x4015 $x3987) (or $x420 $x5750) (or $x274 (= S2_V2_!6113 S2_V2_!6091)) (or $x5539 $x3444) (or $x503 $x2441) (or (not $x4175) $x92) (or $x1711 $x1139) (or (not $x384) $x1500) (or $x3107 $x1204) (or $x274 $x600) (not MW_S1_V1) (not MW_S1_V2) (or (not MW_S1_V5) W_S1_V5) (or (not MW_S1_V4) W_S1_V4) (or (not MW_S2_V1) W_S2_V1) (or (not MW_S2_V3) W_S2_V3) (or (not MW_S2_V2) W_S2_V2) (or (not MW_S2_V5) W_S2_V5))))
 (or (not $x2411) (not $x5995) (and (= ?x1657 ?x3592) $x3370 (= ?x2679 ?x1693) $x2450 $x2434))))))))))))))))))))))))))))))))))))))))))))))))))))))))))))))))))))))))))))))))))))))))))))))))))))))))))))))))))))))))
 )
 )
 )
 )
 )
 )
 )
 )
 )
 )
 )
 )
 )
 )
 )
 )
 )
 )
 )
 )
 )
 )
 )
 )
 )
 )
 )
 )
 )
 )
 )
 )
 )
 )
 )
 )
 )
 )
 )
 )
 )
 )
 )
 )
 )
 )
 )
 )
 )
 )
 )
 )
 )
 )
 )
 )
 ))
 (let (($x5941 (or (and W_S2_V2 R_E1_V2) (and W_S2_V5 R_E1_V5) R_E1_V4)))
 (let (($x5980 (= DISJ_W_S2_R_E1 (not $x5941))))
 (let (($x745 (and W_S2_V5 R_S2_V5)))
 (let (($x2383 (and W_S2_V2 R_S2_V2)))
 (let (($x2024 (and W_S2_V3 R_S2_V3)))
 (let (($x3476 (and W_S2_V1 R_S2_V1)))
 (let (($x3016 (= DISJ_W_S2_R_S2 (not (or $x3476 $x2024 $x2383 $x745 R_S2_V4)))))
 (let (($x106 (and W_S2_V5 R_S1_V5)))
 (let (($x5240 (and W_S2_V2 R_S1_V2)))
 (let (($x2022 (and W_S2_V3 R_S1_V3)))
 (let (($x2210 (and W_S2_V1 R_S1_V1)))
 (let (($x5173 (= DISJ_W_S2_R_S1 (not (or $x2210 $x2022 $x5240 $x106 R_S1_V4)))))
 (let (($x2365 (= DISJ_W_S1_W_S2 (not (or W_S2_V3 (and W_S1_V5 W_S2_V5) W_S1_V4)))))
 (let (($x5351 (not R_E1_V3)))
 (let (($x3427 (not (or R_S2_V3 (and W_S1_V5 R_S2_V5) (and W_S1_V4 R_S2_V4)))))
 (let (($x4294 (= DISJ_W_S1_R_S2 $x3427)))
 (let (($x1399 (not (or R_S1_V3 (and W_S1_V5 R_S1_V5) (and W_S1_V4 R_S1_V4)))))
 (let (($x4794 (= DISJ_W_S1_R_S1 $x1399)))
 (let (($x1879 (not W_S2_V2)))
 (let (($x2379 (not R_S2_V1)))
 (let (($x6042 (and $x2379 $x2392 $x1879 $x3609 DISJ_W_S2_R_S1)))
 (let (($x999 (not W_S2_V3)))
 (let (($x5434 (not R_S2_V5)))
 (let (($x5956 (and $x2379 $x5434 $x1879 $x999 DISJ_W_S2_R_S1)))
 (let (($x929 (and $x2379 $x1879 $x3609 $x999 DISJ_W_S2_R_S1)))
 (let (($x1034 (and $x2379 $x2392 $x5434 $x1879 DISJ_W_S2_R_S1)))
 (let (($x3675 (and $x2379 $x1036 $x1879 $x3609 DISJ_W_S2_R_S1)))
 (let (($x3693 (and $x2379 $x5434 $x1036 $x1879 DISJ_W_S2_R_S1)))
 (let (($x3413 (and $x2379 $x1036 $x1879 $x999 DISJ_W_S2_R_S1)))
 (let (($x6081 (and $x2379 $x2392 $x1036 $x1879 DISJ_W_S2_R_S1)))
 (let (($x94 (and $x5434 $x3668 $x999 DISJ_W_S2_R_S1)))
 (let (($x1233 (and $x5434 $x1036 $x999 DISJ_W_S2_R_S1)))
 (let (($x1744 (and $x1036 $x583 $x999 DISJ_W_S2_R_S1)))
 (let (($x2573 (and $x1036 $x3609 $x999 DISJ_W_S2_R_S1)))
 (let (($x1714 (and DISJ_W_S1_W_S2 DISJ_W_S2_R_S1)))
 (let (($x678 (and $x2392 $x3668 $x3609 DISJ_W_S2_R_S1)))
 (let (($x2043 (and (not W_S2_V1) $x1879)))
 (let (($x537 (and $x1879 DISJ_W_S2_R_S2)))
 (let (($x1421 (or $x5106 $x537 $x1685 $x153 $x2043 $x678 $x1714 $x2573 $x1744 $x1233 $x94 $x6081 $x3413 $x3693 $x3675 $x1034 $x929 $x5956 $x6042)))
 (let (($x5087 (or (and $x1879 DISJ_W_S2_R_S1 DISJ_W_S1_R_S1) $x2043 (and $x572 DISJ_W_S1_R_S1))))
 (let (($x1638 (not W_S1_V2)))
 (let (($x1974 (not W_S1_V1)))
 (let (($x4983 (not R_E1_V1)))
 (let (($x421 (and DISJ_W_S1_R_E1 $x4983 $x1974 $x1638 $x5087 $x1421 W_S1_V3 W_S2_V4 $x4794 $x4294 $x5351 $x2365 $x5173 $x3016 $x5980 $x4827 $x2028 $x3657)))
 (and $x421 $x3461 $x3645 $x2299 $x1348 $x1968 $x3219 $x881)))))))))))))))))))))))))))))))))))))))))))))))))))))))))))))))))))
(check-sat)
